opti conv molmec noautobond conjugate cartesian unit positive unfix
maxcyc 500
switch bfgs gnorm 1.0
vectors
25.832 0.000 0.000
0.000 25.832 0.000
0.000 0.000 25.832
cartesian
Zn1  core    7.57859216      5.33740784      5.33740784     
O2   core    7.28126584      5.63395920      3.46148800     
C3   core    6.45800000      6.45800000      2.87510160     
C3   core    6.45800000      6.45800000      1.38976160     
C3   core    5.60812720      7.30787280      0.69488080     
H4   core    5.03982320      7.87617680      1.15727360     
C3   core    5.60812720      7.30787280      25.13711920    
H4   core    5.03982320      7.87617680      24.67472640    
C3   core    6.45800000      6.45800000      24.44223840    
C3   core    7.30787280      5.60812720      25.13711920    
H4   core    7.87617680      5.03982320      24.67472640    
C3   core    7.30787280      5.60812720      0.69488080     
H4   core    7.87617680      5.03982320      1.15727360     
C3   core    6.45800000      6.45800000      22.95689840    
O2   core    5.63395920      7.28126584      22.37051200    
Zn1  core    5.33740784      7.57859216      20.49459216    
O2   core    3.46148800      7.28204080      20.19726584    
C3   core    2.87510160      6.45800000      19.37400000    
C3   core    1.38976160      6.45800000      19.37400000    
C3   core    0.69488080      5.60812720      18.52412720    
H4   core    1.15727360      5.03982320      17.95582320    
C3   core    25.13711920     5.60812720      18.52412720    
H4   core    24.67472640     5.03982320      17.95582320    
C3   core    24.44223840     6.45800000      19.37400000    
C3   core    25.13711920     7.30787280      20.22387280    
H4   core    24.67472640     7.87617680      20.79217680    
C3   core    0.69488080      7.30787280      20.22387280    
H4   core    1.15727360      7.87617680      20.79217680    
C3   core    22.95689840     6.45800000      19.37400000    
O2   core    22.37051200     5.63473416      18.54995920    
Zn1  core    20.49459216     5.33740784      18.25340784    
O2   core    20.19726584     5.63395920      16.37748800    
C3   core    19.37400000     6.45800000      15.79110160    
C3   core    19.37400000     6.45800000      14.30576160    
C3   core    18.52412720     7.30787280      13.61088080    
H4   core    17.95582320     7.87617680      14.07327360    
C3   core    18.52412720     7.30787280      12.22111920    
H4   core    17.95582320     7.87617680      11.75872640    
C3   core    19.37400000     6.45800000      11.52623840    
C3   core    20.22387280     5.60812720      12.22111920    
H4   core    20.79217680     5.03982320      11.75872640    
C3   core    20.22387280     5.60812720      13.61088080    
H4   core    20.79217680     5.03982320      14.07327360    
C3   core    19.37400000     6.45800000      10.04089840    
O2   core    20.19804080     5.63473416      9.45451200     
Zn1  core    20.49459216     5.33740784      7.57859216     
O2   core    20.19726584     3.46148800      7.28204080     
C3   core    19.37400000     2.87510160      6.45800000     
C3   core    19.37400000     1.38976160      6.45800000     
C3   core    18.52412720     0.69488080      5.60812720     
H4   core    17.95582320     1.15727360      5.03982320     
C3   core    18.52412720     25.13711920     5.60812720     
H4   core    17.95582320     24.67472640     5.03982320     
C3   core    19.37400000     24.44223840     6.45800000     
C3   core    20.22387280     25.13711920     7.30787280     
H4   core    20.79217680     24.67472640     7.87617680     
C3   core    20.22387280     0.69488080      7.30787280     
H4   core    20.79217680     1.15727360      7.87617680     
C3   core    19.37400000     22.95689840     6.45800000     
O2   core    18.54995920     22.37051200     5.63473416     
Zn1  core    18.25340784     20.49459216     5.33740784     
O2   core    16.37748800     20.19726584     5.63395920     
C3   core    15.79110160     19.37400000     6.45800000     
C3   core    14.30576160     19.37400000     6.45800000     
C3   core    13.61088080     18.52412720     7.30787280     
H4   core    14.07327360     17.95582320     7.87617680     
C3   core    12.22111920     18.52412720     7.30787280     
H4   core    11.75872640     17.95582320     7.87617680     
C3   core    11.52623840     19.37400000     6.45800000     
C3   core    12.22111920     20.22387280     5.60812720     
H4   core    11.75872640     20.79217680     5.03982320     
C3   core    13.61088080     20.22387280     5.60812720     
H4   core    14.07327360     20.79217680     5.03982320     
C3   core    10.04089840     19.37400000     6.45800000     
O2   core    9.45451200      20.19804080     5.63473416     
Zn1  core    7.57859216      20.49459216     5.33740784     
O2   core    7.28126584      22.37051200     5.63395920     
C3   core    6.45800000      22.95689840     6.45800000     
C3   core    6.45800000      24.44223840     6.45800000     
C3   core    5.60812720      25.13711920     7.30787280     
H4   core    5.03982320      24.67472640     7.87617680     
C3   core    5.60812720      0.69488080      7.30787280     
H4   core    5.03982320      1.15727360      7.87617680     
C3   core    6.45800000      1.38976160      6.45800000     
C3   core    7.30787280      0.69488080      5.60812720     
H4   core    7.87617680      1.15727360      5.03982320     
C3   core    7.30787280      25.13711920     5.60812720     
H4   core    7.87617680      24.67472640     5.03982320     
C3   core    6.45800000      2.87510160      6.45800000     
O2   core    5.63395920      3.46148800      7.28126584     
Zn1  core    5.33740784      5.33740784      7.57859216     
O2   core    3.46148800      5.63473416      7.28204080     
C3   core    2.87510160      6.45800000      6.45800000     
C3   core    1.38976160      6.45800000      6.45800000     
C3   core    0.69488080      5.60812720      7.30787280     
H4   core    1.15727360      5.03982320      7.87617680     
C3   core    25.13711920     5.60812720      7.30787280     
H4   core    24.67472640     5.03982320      7.87617680     
C3   core    24.44223840     6.45800000      6.45800000     
C3   core    25.13711920     7.30787280      5.60812720     
H4   core    24.67472640     7.87617680      5.03982320     
C3   core    0.69488080      7.30787280      5.60812720     
H4   core    1.15727360      7.87617680      5.03982320     
C3   core    22.95689840     6.45800000      6.45800000     
O2   core    22.37051200     5.63395920      7.28126584     
O2   core    22.37051200     7.28204080      5.63473416     
Zn1  core    20.49459216     7.57859216      5.33740784     
O2   core    20.19804080     7.28126584      3.46148800     
C3   core    19.37400000     6.45800000      2.87510160     
C3   core    19.37400000     6.45800000      1.38976160     
C3   core    18.52412720     5.60812720      0.69488080     
H4   core    17.95582320     5.03982320      1.15727360     
C3   core    18.52412720     5.60812720      25.13711920    
H4   core    17.95582320     5.03982320      24.67472640    
C3   core    19.37400000     6.45800000      24.44223840    
C3   core    20.22387280     7.30787280      25.13711920    
H4   core    20.79217680     7.87617680      24.67472640    
C3   core    20.22387280     7.30787280      0.69488080     
H4   core    20.79217680     7.87617680      1.15727360     
C3   core    19.37400000     6.45800000      22.95689840    
O2   core    18.55073416     5.63395920      22.37051200    
Zn1  core    18.25340784     5.33740784      20.49459216    
O2   core    18.54995920     3.46148800      20.19726584    
C3   core    19.37400000     2.87510160      19.37400000    
C3   core    19.37400000     1.38976160      19.37400000    
C3   core    18.52412720     0.69488080      20.22387280    
H4   core    17.95582320     1.15727360      20.79217680    
C3   core    18.52412720     25.13711920     20.22387280    
H4   core    17.95582320     24.67472640     20.79217680    
C3   core    19.37400000     24.44223840     19.37400000    
C3   core    20.22387280     25.13711920     18.52412720    
H4   core    20.79217680     24.67472640     17.95582320    
C3   core    20.22387280     0.69488080      18.52412720    
H4   core    20.79217680     1.15727360      17.95582320    
C3   core    19.37400000     22.95689840     19.37400000    
O2   core    20.19726584     22.37051200     18.54995920    
Zn1  core    20.49459216     20.49459216     18.25340784    
O2   core    20.19804080     20.19726584     16.37748800    
C3   core    19.37400000     19.37400000     15.79110160    
C3   core    19.37400000     19.37400000     14.30576160    
C3   core    18.52412720     18.52412720     13.61088080    
H4   core    17.95582320     17.95582320     14.07327360    
C3   core    18.52412720     18.52412720     12.22111920    
H4   core    17.95582320     17.95582320     11.75872640    
C3   core    19.37400000     19.37400000     11.52623840    
C3   core    20.22387280     20.22387280     12.22111920    
H4   core    20.79217680     20.79217680     11.75872640    
C3   core    20.22387280     20.22387280     13.61088080    
H4   core    20.79217680     20.79217680     14.07327360    
C3   core    19.37400000     19.37400000     10.04089840    
O2   core    18.55073416     18.54995920     9.45451200     
Zn1  core    18.25340784     18.25340784     7.57859216     
O2   core    18.54995920     16.37748800     7.28126584     
C3   core    19.37400000     15.79110160     6.45800000     
C3   core    19.37400000     14.30576160     6.45800000     
C3   core    18.52412720     13.61088080     7.30787280     
H4   core    17.95582320     14.07327360     7.87617680     
C3   core    18.52412720     12.22111920     7.30787280     
H4   core    17.95582320     11.75872640     7.87617680     
C3   core    19.37400000     11.52623840     6.45800000     
C3   core    20.22387280     12.22111920     5.60812720     
H4   core    20.79217680     11.75872640     5.03982320     
C3   core    20.22387280     13.61088080     5.60812720     
H4   core    20.79217680     14.07327360     5.03982320     
C3   core    19.37400000     10.04089840     6.45800000     
O2   core    20.19726584     9.45451200      5.63395920     
O2   core    18.55073416     9.45451200      7.28204080     
Zn1  core    18.25340784     7.57859216      7.57859216     
O2   core    16.37748800     7.28204080      7.28126584     
C3   core    15.79110160     6.45800000      6.45800000     
C3   core    14.30576160     6.45800000      6.45800000     
C3   core    13.61088080     5.60812720      5.60812720     
H4   core    14.07327360     5.03982320      5.03982320     
C3   core    12.22111920     5.60812720      5.60812720     
H4   core    11.75872640     5.03982320      5.03982320     
C3   core    11.52623840     6.45800000      6.45800000     
C3   core    12.22111920     7.30787280      7.30787280     
H4   core    11.75872640     7.87617680      7.87617680     
C3   core    13.61088080     7.30787280      7.30787280     
H4   core    14.07327360     7.87617680      7.87617680     
C3   core    10.04089840     6.45800000      6.45800000     
O2   core    9.45451200      5.63473416      5.63395920     
O2   core    9.45451200      7.28126584      7.28204080     
Zn1  core    7.57859216      7.57859216      7.57859216     
O2   core    7.28126584      7.28204080      9.45451200     
C3   core    6.45800000      6.45800000      10.04089840    
C3   core    6.45800000      6.45800000      11.52623840    
C3   core    5.60812720      5.60812720      12.22111920    
H4   core    5.03982320      5.03982320      11.75872640    
C3   core    5.60812720      5.60812720      13.61088080    
H4   core    5.03982320      5.03982320      14.07327360    
C3   core    6.45800000      6.45800000      14.30576160    
C3   core    7.30787280      7.30787280      13.61088080    
H4   core    7.87617680      7.87617680      14.07327360    
C3   core    7.30787280      7.30787280      12.22111920    
H4   core    7.87617680      7.87617680      11.75872640    
C3   core    6.45800000      6.45800000      15.79110160    
O2   core    5.63395920      5.63473416      16.37748800    
Zn1  core    5.33740784      5.33740784      18.25340784    
O2   core    3.46148800      5.63395920      18.55073416    
O2   core    5.63473416      3.46148800      18.54995920    
C3   core    6.45800000      2.87510160      19.37400000    
C3   core    6.45800000      1.38976160      19.37400000    
C3   core    5.60812720      0.69488080      18.52412720    
H4   core    5.03982320      1.15727360      17.95582320    
C3   core    5.60812720      25.13711920     18.52412720    
H4   core    5.03982320      24.67472640     17.95582320    
C3   core    6.45800000      24.44223840     19.37400000    
C3   core    7.30787280      25.13711920     20.22387280    
H4   core    7.87617680      24.67472640     20.79217680    
C3   core    7.30787280      0.69488080      20.22387280    
H4   core    7.87617680      1.15727360      20.79217680    
C3   core    6.45800000      22.95689840     19.37400000    
O2   core    5.63395920      22.37051200     18.55073416    
Zn1  core    5.33740784      20.49459216     18.25340784    
O2   core    3.46148800      20.19726584     18.54995920    
C3   core    2.87510160      19.37400000     19.37400000    
C3   core    1.38976160      19.37400000     19.37400000    
C3   core    0.69488080      18.52412720     20.22387280    
H4   core    1.15727360      17.95582320     20.79217680    
C3   core    25.13711920     18.52412720     20.22387280    
H4   core    24.67472640     17.95582320     20.79217680    
C3   core    24.44223840     19.37400000     19.37400000    
C3   core    25.13711920     20.22387280     18.52412720    
H4   core    24.67472640     20.79217680     17.95582320    
C3   core    0.69488080      20.22387280     18.52412720    
H4   core    1.15727360      20.79217680     17.95582320    
C3   core    22.95689840     19.37400000     19.37400000    
O2   core    22.37051200     20.19804080     18.55073416    
O2   core    22.37051200     18.54995920     20.19726584    
Zn1  core    20.49459216     18.25340784     20.49459216    
O2   core    20.19804080     18.55073416     22.37051200    
C3   core    19.37400000     19.37400000     22.95689840    
C3   core    19.37400000     19.37400000     24.44223840    
C3   core    18.52412720     20.22387280     25.13711920    
H4   core    17.95582320     20.79217680     24.67472640    
C3   core    18.52412720     20.22387280     0.69488080     
H4   core    17.95582320     20.79217680     1.15727360     
C3   core    19.37400000     19.37400000     1.38976160     
C3   core    20.22387280     18.52412720     0.69488080     
H4   core    20.79217680     17.95582320     1.15727360     
C3   core    20.22387280     18.52412720     25.13711920    
H4   core    20.79217680     17.95582320     24.67472640    
C3   core    19.37400000     19.37400000     2.87510160     
O2   core    20.19726584     18.54995920     3.46148800     
Zn1  core    20.49459216     18.25340784     5.33740784     
O2   core    22.37051200     18.55073416     5.63395920     
C3   core    22.95689840     19.37400000     6.45800000     
C3   core    24.44223840     19.37400000     6.45800000     
C3   core    25.13711920     18.52412720     5.60812720     
H4   core    24.67472640     17.95582320     5.03982320     
C3   core    0.69488080      18.52412720     5.60812720     
H4   core    1.15727360      17.95582320     5.03982320     
C3   core    1.38976160      19.37400000     6.45800000     
C3   core    0.69488080      20.22387280     7.30787280     
H4   core    1.15727360      20.79217680     7.87617680     
C3   core    25.13711920     20.22387280     7.30787280     
H4   core    24.67472640     20.79217680     7.87617680     
C3   core    2.87510160      19.37400000     6.45800000     
O2   core    3.46148800      18.54995920     5.63473416     
Zn1  core    5.33740784      18.25340784     5.33740784     
O2   core    5.63395920      18.55073416     3.46148800     
C3   core    6.45800000      19.37400000     2.87510160     
C3   core    6.45800000      19.37400000     1.38976160     
C3   core    5.60812720      18.52412720     0.69488080     
H4   core    5.03982320      17.95582320     1.15727360     
C3   core    5.60812720      18.52412720     25.13711920    
H4   core    5.03982320      17.95582320     24.67472640    
C3   core    6.45800000      19.37400000     24.44223840    
C3   core    7.30787280      20.22387280     25.13711920    
H4   core    7.87617680      20.79217680     24.67472640    
C3   core    7.30787280      20.22387280     0.69488080     
H4   core    7.87617680      20.79217680     1.15727360     
C3   core    6.45800000      19.37400000     22.95689840    
O2   core    5.63473416      18.54995920     22.37051200    
Zn1  core    5.33740784      18.25340784     20.49459216    
O2   core    5.63395920      16.37748800     20.19726584    
C3   core    6.45800000      15.79110160     19.37400000    
C3   core    6.45800000      14.30576160     19.37400000    
C3   core    5.60812720      13.61088080     20.22387280    
H4   core    5.03982320      14.07327360     20.79217680    
C3   core    5.60812720      12.22111920     20.22387280    
H4   core    5.03982320      11.75872640     20.79217680    
C3   core    6.45800000      11.52623840     19.37400000    
C3   core    7.30787280      12.22111920     18.52412720    
H4   core    7.87617680      11.75872640     17.95582320    
C3   core    7.30787280      13.61088080     18.52412720    
H4   core    7.87617680      14.07327360     17.95582320    
C3   core    6.45800000      10.04089840     19.37400000    
O2   core    5.63473416      9.45451200      20.19804080    
O2   core    7.28126584      9.45451200      18.54995920    
Zn1  core    7.57859216      7.57859216      18.25340784    
O2   core    7.28204080      7.28126584      16.37748800    
O2   core    9.45451200      7.28204080      18.55073416    
C3   core    10.04089840     6.45800000      19.37400000    
C3   core    11.52623840     6.45800000      19.37400000    
C3   core    12.22111920     7.30787280      18.52412720    
H4   core    11.75872640     7.87617680      17.95582320    
C3   core    13.61088080     7.30787280      18.52412720    
H4   core    14.07327360     7.87617680      17.95582320    
C3   core    14.30576160     6.45800000      19.37400000    
C3   core    13.61088080     5.60812720      20.22387280    
H4   core    14.07327360     5.03982320      20.79217680    
C3   core    12.22111920     5.60812720      20.22387280    
H4   core    11.75872640     5.03982320      20.79217680    
C3   core    15.79110160     6.45800000      19.37400000    
O2   core    16.37748800     5.63473416      20.19804080    
O2   core    16.37748800     7.28126584      18.54995920    
Zn1  core    18.25340784     7.57859216      18.25340784    
O2   core    18.55073416     7.28204080      16.37748800    
O2   core    18.54995920     9.45451200      18.55073416    
C3   core    19.37400000     10.04089840     19.37400000    
C3   core    19.37400000     11.52623840     19.37400000    
C3   core    18.52412720     12.22111920     18.52412720    
H4   core    17.95582320     11.75872640     17.95582320    
C3   core    18.52412720     13.61088080     18.52412720    
H4   core    17.95582320     14.07327360     17.95582320    
C3   core    19.37400000     14.30576160     19.37400000    
C3   core    20.22387280     13.61088080     20.22387280    
H4   core    20.79217680     14.07327360     20.79217680    
C3   core    20.22387280     12.22111920     20.22387280    
H4   core    20.79217680     11.75872640     20.79217680    
C3   core    19.37400000     15.79110160     19.37400000    
O2   core    18.55073416     16.37748800     18.54995920    
Zn1  core    18.25340784     18.25340784     18.25340784    
O2   core    16.37748800     18.54995920     18.55073416    
C3   core    15.79110160     19.37400000     19.37400000    
C3   core    14.30576160     19.37400000     19.37400000    
C3   core    13.61088080     18.52412720     18.52412720    
H4   core    14.07327360     17.95582320     17.95582320    
C3   core    12.22111920     18.52412720     18.52412720    
H4   core    11.75872640     17.95582320     17.95582320    
C3   core    11.52623840     19.37400000     19.37400000    
C3   core    12.22111920     20.22387280     20.22387280    
H4   core    11.75872640     20.79217680     20.79217680    
C3   core    13.61088080     20.22387280     20.22387280    
H4   core    14.07327360     20.79217680     20.79217680    
C3   core    10.04089840     19.37400000     19.37400000    
O2   core    9.45451200      18.55073416     18.54995920    
Zn1  core    7.57859216      18.25340784     18.25340784    
O2   core    7.28126584      18.54995920     16.37748800    
C3   core    6.45800000      19.37400000     15.79110160    
C3   core    6.45800000      19.37400000     14.30576160    
C3   core    5.60812720      20.22387280     13.61088080    
H4   core    5.03982320      20.79217680     14.07327360    
C3   core    5.60812720      20.22387280     12.22111920    
H4   core    5.03982320      20.79217680     11.75872640    
C3   core    6.45800000      19.37400000     11.52623840    
C3   core    7.30787280      18.52412720     12.22111920    
H4   core    7.87617680      17.95582320     11.75872640    
C3   core    7.30787280      18.52412720     13.61088080    
H4   core    7.87617680      17.95582320     14.07327360    
C3   core    6.45800000      19.37400000     10.04089840    
O2   core    5.63395920      20.19726584     9.45451200     
Zn1  core    5.33740784      20.49459216     7.57859216     
O2   core    3.46148800      20.19804080     7.28126584     
O2   core    5.63473416      22.37051200     7.28204080     
O5   core    6.45800000      19.37400000     6.45800000     
Zn1  core    7.57859216      18.25340784     7.57859216     
O2   core    7.28204080      18.55073416     9.45451200     
O2   core    7.28126584      16.37748800     7.28204080     
C3   core    6.45800000      15.79110160     6.45800000     
C3   core    6.45800000      14.30576160     6.45800000     
C3   core    5.60812720      13.61088080     5.60812720     
H4   core    5.03982320      14.07327360     5.03982320     
C3   core    5.60812720      12.22111920     5.60812720     
H4   core    5.03982320      11.75872640     5.03982320     
C3   core    6.45800000      11.52623840     6.45800000     
C3   core    7.30787280      12.22111920     7.30787280     
H4   core    7.87617680      11.75872640     7.87617680     
C3   core    7.30787280      13.61088080     7.30787280     
H4   core    7.87617680      14.07327360     7.87617680     
C3   core    6.45800000      10.04089840     6.45800000     
O2   core    5.63395920      9.45451200      5.63473416     
Zn1  core    5.33740784      7.57859216      5.33740784     
O2   core    3.46148800      7.28126584      5.63395920     
O2   core    5.63473416      7.28204080      3.46148800     
O5   core    6.45800000      6.45800000      6.45800000     
O2   core    7.28204080      9.45451200      7.28126584     
O2   core    5.63473416      16.37748800     5.63395920     
O2   core    9.45451200      18.54995920     7.28126584     
O2   core    5.63473416      20.19804080     16.37748800    
O2   core    7.28204080      16.37748800     18.55073416    
O5   core    6.45800000      19.37400000     19.37400000    
Zn1  core    7.57859216      20.49459216     20.49459216    
O2   core    7.28204080      22.37051200     20.19726584    
O2   core    7.28126584      20.19804080     22.37051200    
O2   core    9.45451200      20.19726584     20.19804080    
O2   core    16.37748800     20.19804080     20.19726584    
Zn1  core    18.25340784     20.49459216     20.49459216    
O2   core    18.55073416     22.37051200     20.19804080    
O2   core    18.54995920     20.19726584     22.37051200    
O5   core    19.37400000     19.37400000     19.37400000    
O2   core    18.54995920     18.55073416     16.37748800    
O2   core    20.19726584     16.37748800     20.19804080    
O2   core    20.19804080     9.45451200      20.19726584    
Zn1  core    20.49459216     7.57859216      20.49459216    
O2   core    20.19726584     7.28204080      22.37051200    
O5   core    19.37400000     6.45800000      19.37400000    
O2   core    22.37051200     7.28126584      20.19804080    
O2   core    9.45451200      5.63395920      20.19726584    
Zn1  core    7.57859216      5.33740784      20.49459216    
O2   core    7.28204080      5.63473416      22.37051200    
O2   core    7.28126584      3.46148800      20.19804080    
O5   core    6.45800000      6.45800000      19.37400000    
O2   core    3.46148800      18.55073416     20.19804080    
O2   core    7.28204080      20.19726584     3.46148800     
O2   core    22.37051200     20.19726584     7.28204080     
Zn1  core    20.49459216     20.49459216     7.57859216     
O2   core    20.19804080     22.37051200     7.28126584     
O2   core    20.19726584     20.19804080     9.45451200     
O5   core    19.37400000     19.37400000     6.45800000     
O2   core    20.19804080     16.37748800     5.63473416     
O2   core    18.55073416     20.19804080     3.46148800     
O2   core    5.63473416      5.63395920      9.45451200     
O2   core    16.37748800     5.63395920      5.63473416     
Zn1  core    18.25340784     5.33740784      5.33740784     
O2   core    18.54995920     5.63473416      3.46148800     
O2   core    18.55073416     3.46148800      5.63395920     
O5   core    19.37400000     6.45800000      6.45800000     
O2   core    18.54995920     7.28126584      9.45451200     
O2   core    16.37748800     18.55073416     7.28204080     
O2   core    20.19804080     3.46148800      18.55073416    
O2   core    7.28204080      3.46148800      5.63473416     

connect 1    2    half      
connect 1    182  half      
connect 1    378  half      
connect 1    424  half      
connect 2    3    double    
connect 3    4              
connect 3    377  double    
connect 4    5    double    
connect 4    12   double    
connect 5    6              
connect 5    7    double    
connect 7    8              
connect 7    9    double    
connect 9    10   double    
connect 9    14             
connect 10   11             
connect 10   12   double    
connect 12   13             
connect 14   15   double    
connect 14   403  double    
connect 15   16   half      
connect 16   17   half      
connect 16   290  half      
connect 16   405  half      
connect 17   18   double    
connect 18   19             
connect 18   200  double    
connect 19   20   double    
connect 19   27   double    
connect 20   21             
connect 20   22   double    
connect 22   23             
connect 22   24   double    
connect 24   25   double    
connect 24   29             
connect 25   26             
connect 25   27   double    
connect 27   28             
connect 29   30   double    
connect 29   400  double    
connect 30   31   half      
connect 31   32   half      
connect 31   399  half      
connect 31   423  half      
connect 32   33   double    
connect 33   34             
connect 33   310  double    
connect 34   35   double    
connect 34   42   double    
connect 35   36             
connect 35   37   double    
connect 37   38             
connect 37   39   double    
connect 39   40   double    
connect 39   44             
connect 40   41             
connect 40   42   double    
connect 42   43             
connect 44   45   double    
connect 44   421  double    
connect 45   46   half      
connect 46   47   half      
connect 46   105  half      
connect 46   420  half      
connect 47   48   double    
connect 48   49             
connect 48   419  double    
connect 49   50   double    
connect 49   57   double    
connect 50   51             
connect 50   52   double    
connect 52   53             
connect 52   54   double    
connect 54   55   double    
connect 54   59             
connect 55   56             
connect 55   57   double    
connect 57   58             
connect 59   60   double    
connect 59   410  double    
connect 60   61   half      
connect 61   62   half      
connect 61   412  half      
connect 61   414  half      
connect 62   63   double    
connect 63   64             
connect 63   422  double    
connect 64   65   double    
connect 64   72   double    
connect 65   66             
connect 65   67   double    
connect 67   68             
connect 67   69   double    
connect 69   70   double    
connect 69   74             
connect 70   71             
connect 70   72   double    
connect 72   73             
connect 74   75   double    
connect 74   381  double    
connect 75   76   half      
connect 76   77   half      
connect 76   358  half      
connect 76   407  half      
connect 77   78   double    
connect 78   79             
connect 78   357  double    
connect 79   80   double    
connect 79   87   double    
connect 80   81             
connect 80   82   double    
connect 82   83             
connect 82   84   double    
connect 84   85   double    
connect 84   89             
connect 85   86             
connect 85   87   double    
connect 87   88             
connect 89   90   double    
connect 89   424  double    
connect 90   91   half      
connect 91   92   half      
connect 91   378  half      
connect 91   415  half      
connect 92   93   double    
connect 93   94             
connect 93   376  double    
connect 94   95   double    
connect 94   102  double    
connect 95   96             
connect 95   97   double    
connect 97   98             
connect 97   99   double    
connect 99   100  double    
connect 99   104            
connect 100  101            