opti conp molmec noautobond conjugate cartesian unit positive unfix
maxcyc 500
switch bfgs gnorm 1.0
vectors
25.832 0.000 0.000
0.000 25.832 0.000
0.000 0.000 25.832
cartesian
Zn1  core    7.54966032      5.35419864      5.35419864     
O2   core    7.19808680      5.70577216      3.42893968     
C3   core    6.44585896      6.45800000      2.83299544     
C3   core    6.44560064      6.45800000      1.35824656     
C3   core    5.61768504      7.28669056      0.67240696     
H4   core    4.94501976      7.96013080      1.19033856     
C3   core    5.61768504      7.28669056      25.16010968    
H4   core    4.94501976      7.96038912      24.64243640    
C3   core    6.44534232      6.45774168      24.47427008    
C3   core    7.27299960      5.62853448      25.15985136    
H4   core    7.94566488      4.95483592      24.64217808    
C3   core    7.27325792      5.62879280      0.67240696     
H4   core    7.94592320      4.95509424      1.19008024     
C3   core    6.44534232      6.45748336      22.99952120    
O2   core    5.69311448      7.21022784      22.40357696    
Zn1  core    5.34179928      7.56154304      20.47780136    
O2   core    3.41628200      7.20996952      20.12648616    
C3   core    2.82007944      6.45774168      19.37400000    
C3   core    1.34533056      6.45748336      19.37425832    
C3   core    0.65974928      5.62956776      18.54556776    
H4   core    1.17742256      4.95638584      17.87212752    
C3   core    25.14719368     5.62930944      18.54582608    
H4   core    24.62952040     4.95638584      17.87212752    
C3   core    24.46135408     6.45722504      19.37451664    
C3   core    25.14719368     7.28514064      20.20320720    
H4   core    24.62926208     7.95780592      20.87690576    
C3   core    0.65949096      7.28539896      20.20320720    
H4   core    1.17742256      7.95780592      20.87690576    
C3   core    22.98660520     6.45696672      19.37451664    
O2   core    22.39066096     5.70473888      18.62203048    
Zn1  core    20.46540200     5.35342368      18.27071528    
O2   core    20.11382848     5.70499720      16.34545632    
C3   core    19.36160064     6.45748336      15.74951208    
C3   core    19.36134232     6.45748336      14.27450488    
C3   core    18.53368504     7.28617392      13.58892360    
H4   core    17.86076144     7.95961416      14.10659688    
C3   core    18.53368504     7.28643224      12.24436800    
H4   core    17.86101976     7.95987248      11.72669472    
C3   core    19.36134232     6.45748336      11.55852840    
C3   core    20.18899960     5.62827616      12.24436800    
H4   core    20.86140656     4.95431928      11.72669472    
C3   core    20.18899960     5.62853448      13.58892360    
H4   core    20.86166488     4.95483592      14.10659688    
C3   core    19.36134232     6.45748336      10.08377952    
O2   core    20.11382848     5.70499720      9.48783528     
Zn1  core    20.46540200     5.35368200      7.56231800     
O2   core    20.11408680     3.42842304      7.21074448     
C3   core    19.36160064     2.83247880      6.45825832     
C3   core    19.36160064     1.35747160      6.45851664     
C3   core    18.53316840     0.67189032      5.63034272     
H4   core    17.85998648     1.18956360      4.95690248     
C3   core    18.53316840     25.15933472     5.63034272     
H4   core    17.86024480     24.64166144     4.95690248     
C3   core    19.36160064     24.47375344     6.45851664     
C3   core    20.18977456     25.15933472     7.28694888     
H4   core    20.86295648     24.64140312     7.96013080     
C3   core    20.18977456     0.67189032      7.28694888     
H4   core    20.86295648     1.18956360      7.96038912     
C3   core    19.36160064     22.99900456     6.45825832     
O2   core    18.60911448     22.40306032     5.70577216     
Zn1  core    18.25754096     20.47754304     5.35445696     
O2   core    16.33228200     20.12596952     5.70577216     
C3   core    15.73607944     19.37374168     6.45825832     
C3   core    14.26133056     19.37374168     6.45851664     
C3   core    13.57574928     18.54556776     7.28669056     
H4   core    14.09342256     17.87238584     7.95987248     
C3   core    12.23119368     18.54556776     7.28669056     
H4   core    11.71326208     17.87264416     7.95987248     
C3   core    11.54561240     19.37400000     6.45825832     
C3   core    12.23119368     20.20217392     5.63008440     
H4   core    11.71377872     20.87587248     4.95690248     
C3   core    13.57574928     20.20217392     5.63008440     
H4   core    14.09368088     20.87535584     4.95690248     
C3   core    10.07060520     19.37400000     6.45825832     
O2   core    9.47466096      20.12648616     5.70603048     
Zn1  core    7.54914368      20.47780136     5.35445696     
O2   core    7.19782848      22.40306032     5.70603048     
C3   core    6.44534232      22.99900456     6.45825832     
C3   core    6.44560064      24.47401176     6.45825832     
C3   core    5.61742672      25.15959304     7.28669056     
H4   core    4.94424480      24.64191976     7.95987248     
C3   core    5.61742672      0.67214864      7.28669056     
H4   core    4.94450312      1.18982192      7.96013080     
C3   core    6.44534232      1.35798824      6.45825832     
C3   core    7.27351624      0.67214864      5.62956776     
H4   core    7.94618152      1.18982192      4.95586920     
C3   core    7.27351624      25.15959304     5.62956776     
H4   core    7.94643984      24.64191976     4.95612752     
C3   core    6.44560064      2.83273712      6.45825832     
O2   core    5.69285616      3.42868136      7.21048616     
Zn1  core    5.34205760      5.35419864      7.56180136     
O2   core    3.41654032      5.70577216      7.21100280     
C3   core    2.82033776      6.45800000      6.45851664     
C3   core    1.34558888      6.45800000      6.45851664     
C3   core    0.66000760      5.62982608      7.28694888     
H4   core    1.17768088      4.95664416      7.96038912     
C3   core    25.14745200     5.62956776      7.28694888     
H4   core    24.62977872     4.95664416      7.96038912     
C3   core    24.46187072     6.45774168      6.45851664     
C3   core    25.14719368     7.28591560      5.63008440     
H4   core    24.62952040     7.95935584      4.95690248     
C3   core    0.65974928      7.28591560      5.63008440     
H4   core    1.17742256      7.95935584      4.95690248     
C3   core    22.98686352     6.45774168      6.45851664     
O2   core    22.39091928     5.70525552      7.21100280     
O2   core    22.39091928     7.20996952      5.70628880     
Zn1  core    20.46540200     7.56128472      5.35471528     
O2   core    20.11408680     7.20971120      3.42945632     
C3   core    19.36160064     6.45748336      2.83325376     
C3   core    19.36134232     6.45748336      1.35850488     
C3   core    18.53316840     5.62905112      0.67292360     
H4   core    17.85998648     4.95586920      1.19085520     
C3   core    18.53291008     5.62930944      25.16036800    
H4   core    17.85972816     4.95586920      24.64295304    
C3   core    19.36134232     6.45748336      24.47478672    
C3   core    20.18977456     7.28565728      25.16036800    
H4   core    20.86295648     7.95883920      24.64243640    
C3   core    20.18977456     7.28565728      0.67266528     
H4   core    20.86295648     7.95883920      1.19059688     
C3   core    19.36160064     6.45722504      22.99977952    
O2   core    18.60911448     5.70499720      22.40383528    
Zn1  core    18.25779928     5.35368200      20.47831800    
O2   core    18.60911448     3.42816472      20.12674448    
C3   core    19.36134232     2.83196216      19.37451664    
C3   core    19.36134232     1.35721328      19.37451664    
C3   core    18.53316840     0.67137368      20.20269056    
H4   core    17.86024480     1.18904696      20.87638912    
C3   core    18.53291008     25.15881808     20.20269056    
H4   core    17.85972816     24.64114480     20.87587248    
C3   core    19.36082568     24.47323680     19.37400000    
C3   core    20.18899960     25.15881808     18.54556776    
H4   core    20.86192320     24.64114480     17.87212752    
C3   core    20.18925792     0.67137368      18.54582608    
H4   core    20.86243984     1.18930528      17.87264416    
C3   core    19.36082568     22.99822960     19.37400000    
O2   core    20.11305352     22.40228536     18.62151384    
Zn1  core    20.46462704     20.47702640     18.27045696    
O2   core    20.11331184     20.12545288     16.34493968    
C3   core    19.36108400     19.37296672     15.74899544    
C3   core    19.36108400     19.37296672     14.27398824    
C3   core    18.53265176     18.54479280     13.58814864    
H4   core    17.85921152     17.87186920     14.10582192    
C3   core    18.53265176     18.54505112     12.24359304    
H4   core    17.85921152     17.87212752     11.72591976    
C3   core    19.36160064     19.37322504     11.55827008    
C3   core    20.19029120     20.20088232     12.24410968    
H4   core    20.86398976     20.87354760     11.72643640    
C3   core    20.19003288     20.20088232     13.58840696    
H4   core    20.86347312     20.87354760     14.10633856    
C3   core    19.36160064     19.37322504     10.08326288    
O2   core    18.60911448     18.62099720     9.48731864     
Zn1  core    18.25754096     18.26968200     7.56180136     
O2   core    18.60885616     16.34442304     7.21022784     
C3   core    19.36160064     15.74847880     6.45825832     
C3   core    19.36160064     14.27347160     6.45825832     
C3   core    18.53316840     13.58789032     7.28669056     
H4   core    17.85998648     14.10582192     7.95987248     
C3   core    18.53342672     12.24333472     7.28669056     
H4   core    17.86050312     11.72591976     7.96038912     
C3   core    19.36134232     11.55775344     6.45825832     
C3   core    20.18951624     12.24333472     5.62956776     
H4   core    20.86218152     11.72566144     4.95586920     
C3   core    20.18951624     13.58789032     5.62956776     
H4   core    20.86269816     14.10582192     4.95612752     
C3   core    19.36134232     10.08274624     6.45825832     
O2   core    20.11382848     9.48680200      5.70577216     
O2   core    18.60911448     9.48706032      7.21074448     
Zn1  core    18.25779928     7.56154304      7.56231800     
O2   core    16.33254032     7.20971120      7.21100280     
C3   core    15.73633776     6.45748336      6.45851664     
C3   core    14.26158888     6.45774168      6.45825832     
C3   core    13.57600760     5.62905112      5.63060104     
H4   core    14.09368088     4.95509424      4.95767744     
C3   core    12.23145200     5.62905112      5.63034272     
H4   core    11.71352040     4.95535256      4.95767744     
C3   core    11.54587072     6.45825832      6.45800000     
C3   core    12.23145200     7.28720720      7.28539896     
H4   core    11.71377872     7.96116408      7.95806424     
C3   core    13.57600760     7.28694888      7.28565728     
H4   core    14.09368088     7.96090576      7.95832256     
C3   core    10.07112184     6.45800000      6.45800000     
O2   core    9.47517760      5.70577216      5.70551384     
O2   core    9.47517760      7.21048616      7.21048616     
Zn1  core    7.54966032      7.56180136      7.56205968     
O2   core    7.19834512      7.21074448      9.48731864     
C3   core    6.44611728      6.45825832      10.08326288    
C3   core    6.44585896      6.45825832      11.55801176    
C3   core    5.61794336      5.62930944      12.24359304    
H4   core    4.94527808      4.95561088      11.72591976    
C3   core    5.61794336      5.62905112      13.58814864    
H4   core    4.94527808      4.95509424      14.10582192    
C3   core    6.44534232      6.45825832      14.27398824    
C3   core    7.27248296      7.28772384      13.58840696    
H4   core    7.94463160      7.96193904      14.10633856    
C3   core    7.27299960      7.28746552      12.24385136    
H4   core    7.94540656      7.96142240      11.72617808    
C3   core    6.44534232      6.45800000      15.74899544    
O2   core    5.69311448      5.70551384      16.34493968    
Zn1  core    5.34154096      5.35394032      18.27045696    
O2   core    3.41602368      5.70525552      18.62151384    
O2   core    5.69285616      3.42842304      18.62151384    
C3   core    6.44508400      2.83247880      19.37400000    
C3   core    6.44508400      1.35772992      19.37400000    
C3   core    5.61691008      0.67214864      18.54556776    
H4   core    4.94398648      1.18982192      17.87212752    
C3   core    5.61691008      25.15959304     18.54556776    
H4   core    4.94372816      24.64166144     17.87238584    
C3   core    6.44482568      24.47375344     19.37425832    
C3   core    7.27274128      25.15959304     20.20294888    
H4   core    7.94566488      24.64191976     20.87638912    
C3   core    7.27299960      0.67189032      20.20269056    
H4   core    7.94618152      1.18982192      20.87613080    
C3   core    6.44482568      22.99900456     19.37451664    
O2   core    5.69233952      22.40280200     18.62203048    
Zn1  core    5.34102432      20.47728472     18.27045696    
O2   core    3.41576536      20.12596952     18.62203048    
C3   core    2.81956280      19.37348336     19.37451664    
C3   core    1.34481392      19.37374168     19.37451664    
C3   core    0.65923264      18.54505112     20.20269056    
H4   core    1.17716424      17.87161088     20.87535584    
C3   core    25.14667704     18.54505112     20.20243224    
H4   core    24.62926208     17.87135256     20.87535584    
C3   core    24.46109576     19.37374168     19.37477496    
C3   core    25.14667704     20.20294888     18.54711768    
H4   core    24.62900376     20.87690576     17.87471072    
C3   core    0.65923264      20.20269056     18.54685936    
H4   core    1.17690592      20.87664744     17.87445240    
C3   core    22.98608856     19.37374168     19.37451664    
O2   core    22.39014432     20.12571120     18.62203048    
O2   core    22.39014432     18.62125552     20.12674448    
Zn1  core    20.46488536     18.26968200     20.47780136    
O2   core    20.11305352     18.62048056     22.40357696    
C3   core    19.36082568     19.37296672     22.99952120    
C3   core    19.36056736     19.37296672     24.47427008    
C3   core    18.53291008     20.20165728     25.16010968    
H4   core    17.85998648     20.87561416     24.64243640    
C3   core    18.53291008     20.20191560     0.67266528     
H4   core    17.86024480     20.87561416     1.19033856     
C3   core    19.36056736     19.37296672     1.35824656     
C3   core    20.18822464     18.54401784     0.67240696     
H4   core    20.86114824     17.87031928     1.19008024     
C3   core    20.18822464     18.54401784     25.16010968    
H4   core    20.86114824     17.87031928     24.64217808    
C3   core    19.36082568     19.37322504     2.83299544     
O2   core    20.11331184     18.62073888     3.42893968     
Zn1  core    20.46514368     18.26968200     5.35419864     
O2   core    22.39040264     18.62099720     5.70551384     
C3   core    22.98634688     19.37348336     6.45800000     
C3   core    24.46135408     19.37348336     6.45800000     
C3   core    25.14719368     18.54582608     5.62930944     
H4   core    24.62952040     17.87316080     4.95561088     
C3   core    0.65974928      18.54582608     5.62930944     
H4   core    1.17742256      17.87316080     4.95561088     
C3   core    1.34533056      19.37348336     6.45851664     
C3   core    0.65949096      20.20114064     7.28746552     
H4   core    1.17716424      20.87354760     7.96142240     
C3   core    25.14693536     20.20114064     7.28720720     
H4   core    24.62926208     20.87380592     7.96090576     
C3   core    2.82007944      19.37374168     6.45851664     
O2   core    3.41628200      18.62151384     5.70603048     
Zn1  core    5.34179928      18.27019864     5.35445696     
O2   core    5.69311448      18.62177216     3.42893968     
C3   core    6.44534232      19.37425832     2.83299544     
C3   core    6.44482568      19.37425832     1.35798824     
C3   core    5.61716840      18.54530944     0.67240696     
H4   core    4.94450312      17.87161088     1.19033856     
C3   core    5.61691008      18.54505112     25.16010968    
H4   core    4.94424480      17.87109424     24.64243640    
C3   core    6.44430904      19.37425832     24.47427008    
C3   core    7.27170800      20.20372384     25.15959304    
H4   core    7.94385664      20.87768072     24.64166144    
C3   core    7.27222464      20.20346552     0.67214864     
H4   core    7.94488992      20.87742240     1.18956360     
C3   core    6.44456736      19.37400000     22.99926288    
O2   core    5.69233952      18.62125552     22.40357696    
Zn1  core    5.34102432      18.26994032     20.47805968    
O2   core    5.69285616      16.34442304     20.12674448    
C3   core    6.44534232      15.74847880     19.37451664    
C3   core    6.44560064      14.27347160     19.37477496    
C3   core    5.61639344      13.58789032     20.20217392    
H4   core    4.94217824      14.10556360     20.87458088    
C3   core    5.61665176      12.24333472     20.20243224    
H4   core    4.94243656      11.72566144     20.87432256    
C3   core    6.44663392      11.55775344     19.37554992    
C3   core    7.27661608      12.24359304     18.54892592    
H4   core    7.95160624      11.72591976     17.87755224    
C3   core    7.27584112      13.58789032     18.54815096    
H4   core    7.95031464      14.10582192     17.87651896    
C3   core    6.44611728      10.08300456     19.37503328    
O2   core    5.69363112      9.48680200      20.12700280    
O2   core    7.19834512      9.48680200      18.62254712    
Zn1  core    7.54940200      7.56154304      18.27071528    
O2   core    7.19757016      7.21048616      16.34519800    
O2   core    9.47491928      7.20945288      18.62177216    
C3   core    10.07086352     6.45696672      19.37400000    
C3   core    11.54587072     6.45696672      19.37400000    
C3   core    12.23145200     7.28462400      18.54505112    
H4   core    11.71377872     7.95754760      17.87135256    
C3   core    13.57600760     7.28488232      18.54530944    
H4   core    14.09368088     7.95754760      17.87135256    
C3   core    14.26184720     6.45748336      19.37451664    
C3   core    13.57600760     5.63034272      20.20398216    
H4   core    14.09393920     4.95819408      20.87819736    
C3   core    12.23171032     5.62982608      20.20346552    
H4   core    11.71403704     4.95767744      20.87768072    
C3   core    15.73659608     6.45748336      19.37451664    
O2   core    16.33254032     5.70499720      20.12674448    
O2   core    16.33254032     7.20996952      18.62203048    
Zn1  core    18.25779928     7.56102640      18.27097360    
O2   core    18.60911448     7.20996952      16.34545632    
O2   core    18.60937280     9.48654368      18.62228880    
C3   core    19.36185896     10.08222960     19.37451664    
C3   core    19.36185896     11.55723680     19.37477496    
C3   core    18.53342672     12.24281808     18.54660104    
H4   core    17.86024480     11.72488648     17.87341912    
C3   core    18.53342672     13.58711536     18.54634272    
H4   core    17.85998648     14.10478864     17.87316080    
C3   core    19.36185896     14.27295496     19.37425832    
C3   core    20.19029120     13.58737368     20.20243224    
H4   core    20.86373144     14.10530528     20.87535584    
C3   core    20.19029120     12.24281808     20.20269056    
H4   core    20.86373144     11.72514480     20.87561416    
C3   core    19.36160064     15.74796216     19.37400000    
O2   core    18.60885616     16.34364808     18.62151384    
Zn1  core    18.25728264     18.26916536     18.27019864    
O2   core    16.33176536     18.62048056     18.62177216    
C3   core    15.73582112     19.37322504     19.37400000    
C3   core    14.26107224     19.37322504     19.37425832    
C3   core    13.57523264     18.54479280     18.54634272    
H4   core    14.09290592     17.87135256     17.87341912    
C3   core    12.23067704     18.54505112     18.54634272    
H4   core    11.71274544     17.87135256     17.87367744    
C3   core    11.54509576     19.37374168     19.37425832    
C3   core    12.23093536     20.20269056     20.20191560    
H4   core    11.71326208     20.87638912     20.87483920    
C3   core    13.57549096     20.20217392     20.20217392    
H4   core    14.09342256     20.87561416     20.87509752    
C3   core    10.07034688     19.37400000     19.37451664    
O2   core    9.47440264      18.62151384     18.62203048    
Zn1  core    7.54888536      18.26968200     18.27045696    
O2   core    7.19757016      18.62125552     16.34519800    
C3   core    6.44508400      19.37348336     15.74899544    
C3   core    6.44482568      19.37296672     14.27398824    
C3   core    5.61716840      20.20191560     13.58840696    
H4   core    4.94450312      20.87587248     14.10633856    
C3   core    5.61716840      20.20217392     12.24385136    
H4   core    4.94476144      20.87638912     11.72617808    
C3   core    6.44456736      19.37296672     11.55827008    
C3   core    7.27170800      18.54350120     12.24385136    
H4   core    7.94385664      17.86928600     11.72591976    
C3   core    7.27196632      18.54375952     13.58840696    
H4   core    7.94437328      17.86954432     14.10608024    
C3   core    6.44482568      19.37322504     10.08326288    
O2   core    5.69259784      20.12596952     9.48731864     
Zn1  core    5.34154096      20.47780136     7.56205968     
O2   core    3.41602368      20.12622784     7.21074448     
O2   core    5.69285616      22.40306032     7.21048616     
O5   core    6.44534232      19.37400000     6.45825832     
Zn1  core    7.54914368      18.26994032     7.56205968     
O2   core    7.19731184      18.62099720     9.48731864     
O2   core    7.19834512      16.34468136     7.21074448     
C3   core    6.44585896      15.74873712     6.45825832     
C3   core    6.44585896      14.27398824     6.45825832     
C3   core    5.61768504      13.58840696     5.62956776     
H4   core    4.94450312      14.10608024     4.95638584     
C3   core    5.61768504      12.24385136     5.62956776     
H4   core    4.94476144      11.72617808     4.95612752     
C3   core    6.44534232      11.55801176     6.45851664     
C3   core    7.27299960      12.24385136     7.28746552     
H4   core    7.94566488      11.72617808     7.96116408     
C3   core    7.27351624      13.58840696     7.28694888     
H4   core    7.94643984      14.10608024     7.96064744     
C3   core    6.44560064      10.08326288     6.45851664     
O2   core    5.69337280      9.48731864      5.70603048     
Zn1  core    5.34179928      7.56180136      5.35445696     
O2   core    3.41628200      7.21048616      5.70603048     
O2   core    5.69337280      7.21048616      3.42893968     
O5   core    6.44585896      6.45800000      6.45800000     
O2   core    7.19808680      9.48731864      7.21048616     
O2   core    5.69363112      16.34493968     5.70603048     
O2   core    9.47466096      18.62151384     7.21074448     
O2   core    5.69259784      20.12596952     16.34493968    
O2   core    7.19757016      16.34442304     18.62203048    
O5   core    6.44482568      19.37374168     19.37425832    
Zn1  core    7.54888536      20.47780136     20.47805968    
O2   core    7.19731184      22.40306032     20.12674448    
O2   core    7.19679520      20.12674448     22.40357696    
O2   core    9.47440264      20.12622784     20.12700280    
O2   core    16.33202368     20.12571120     20.12622784    
Zn1  core    18.25728264     20.47702640     20.47780136    
O2   core    18.60859784     22.40228536     20.12674448    
O2   core    18.60833952     20.12545288     22.40331864    
O5   core    19.36108400     19.37296672     19.37400000    
O2   core    18.60859784     18.62048056     16.34468136    
O2   core    20.11382848     16.34416472     20.12622784    
O2   core    20.11434512     9.48628536      20.12674448    
Zn1  core    20.46540200     7.56102640      20.47831800    
O2   core    20.11382848     7.20971120      22.40383528    
O5   core    19.36160064     6.45722504      19.37477496    
O2   core    22.39066096     7.20945288      20.12700280    
O2   core    9.47491928      5.70473888      20.12674448    
Zn1  core    7.54914368      5.35368200      20.47831800    
O2   core    7.19782848      5.70525552      22.40357696    
O2   core    7.19757016      3.42842304      20.12648616    
O5   core    6.44560064      6.45774168      19.37425832    
O2   core    3.41576536      18.62099720     20.12674448    
O2   core    7.19757016      20.12674448     3.42868136     
O2   core    22.39040264     20.12571120     7.21048616     
Zn1  core    20.46514368     20.47728472     7.56180136     
O2   core    20.11408680     22.40280200     7.21048616     
O2   core    20.11382848     20.12571120     9.48731864     
O5   core    19.36134232     19.37348336     6.45800000     
O2   core    20.11408680     16.34416472     5.70603048     
O2   core    18.60859784     20.12571120     3.42893968     
O2   core    5.69363112      5.70577216      9.48731864     
O2   core    16.33254032     5.70525552      5.70603048     
Zn1  core    18.25779928     5.35394032      5.35471528     
O2   core    18.60911448     5.70551384      3.42945632     
O2   core    18.60937280     3.42842304      5.70577216     
O5   core    19.36160064     6.45748336      6.45851664     
O2   core    18.60911448     7.20996952      9.48783528     
O2   core    16.33228200     18.62125552     7.21074448     
O2   core    20.11382848     3.42790640      18.62203048    
O2   core    7.19782848      3.42868136      5.70577216     

connect 1    2    half      
connect 1    182  half      
connect 1    378  half      
connect 1    424  half      
connect 2    3    double    
connect 3    4              
connect 3    377  double    
connect 4    5    double    
connect 4    12   double    
connect 5    6              
connect 5    7    double    
connect 7    8              
connect 7    9    double    
connect 9    10   double    
connect 9    14             
connect 10   11             
connect 10   12   double    
connect 12   13             
connect 14   15   double    
connect 14   403  double    
connect 15   16   half      
connect 16   17   half      
connect 16   290  half      
connect 16   405  half      
connect 17   18   double    
connect 18   19             
connect 18   200  double    
connect 19   20   double    
connect 19   27   double    
connect 20   21             
connect 20   22   double    
connect 22   23             
connect 22   24   double    
connect 24   25   double    
connect 24   29             
connect 25   26             
connect 25   27   double    
connect 27   28             
connect 29   30   double    
connect 29   400  double    
connect 30   31   half      
connect 31   32   half      
connect 31   399  half      
connect 31   423  half      
connect 32   33   double    
connect 33   34             
connect 33   310  double    
connect 34   35   double    
connect 34   42   double    
connect 35   36             
connect 35   37   double    
connect 37   38             
connect 37   39   double    
connect 39   40   double    
connect 39   44             
connect 40   41             
connect 40   42   double    
connect 42   43             
connect 44   45   double    
connect 44   421  double    
connect 45   46   half      
connect 46   47   half      
connect 46   105  half      
connect 46   420  half      
connect 47   48   double    
connect 48   49             
connect 48   419  double    
connect 49   50   double    
connect 49   57   double    
connect 50   51             
connect 50   52   double    
connect 52   53             
connect 52   54   double    
connect 54   55   double    
connect 54   59             
connect 55   56             
connect 55   57   double    
connect 57   58             
connect 59   60   double    
connect 59   410  double    
connect 60   61   half      
connect 61   62   half      
connect 61   412  half      
connect 61   414  half      
connect 62   63   double    
connect 63   64             
connect 63   422  double    
connect 64   65   double    
connect 64   72   double    
connect 65   66             
connect 65   67   double    
connect 67   68             
connect 67   69   double    
connect 69   70   double    
connect 69   74             
connect 70   71             
connect 70   72   double    
connect 72   73             
connect 74   75   double    
connect 74   381  double    
connect 75   76   half      
connect 76   77   half      
connect 76   358  half      
connect 76   407  half      
connect 77   78   double    
connect 78   79             
connect 78   357  double    
connect 79   80   double    
connect 79   87   double    
connect 80   81             
connect 80   82   double    
connect 82   83             
connect 82   84   double    
connect 84   85   double    
connect 84   89             
connect 85   86             
connect 85   87   double    
connect 87   88             
connect 89   90   double    
connect 89   424  double    
connect 90   91   half      
connect 91   92   half      
connect 91   378  half      
connect 91   415  half      
connect 92   93   double    
connect 93   94             
connect 93   376  double    
connect 94   95   double    
connect 94   102  double    
connect 95   96             
connect 95   97   double    
connect 97   98             
connect 97   99   double    
connect 99   100  double    
connect 99   104            
connect 100  101            